# IMPORTANT - THE STAGES ARE ASSUMED TO BE IN TIME-ORDER.

set Stages := FirstStage SecondStage ;

set StageVariables[FirstStage] :=  DevotedAcreage[*];

set StageVariables[SecondStage] := QuantitySubQuotaSold[*]
                                   QuantitySuperQuotaSold[*]
                                   QuantityPurchased[*];

param StageCost := FirstStage  FirstStageCost
                   SecondStage SecondStageCost ;

set Nodes :=
   Node_ROOT
   Node_ROOT_BelowAverage
   Node_ROOT_AboveAverage
   Node_ROOT_Average
;

param NodeStage :=
   Node_ROOT FirstStage
   Node_ROOT_BelowAverage SecondStage
   Node_ROOT_AboveAverage SecondStage
   Node_ROOT_Average SecondStage
;

set Children[Node_ROOT] := 
   Node_ROOT_BelowAverage   Node_ROOT_AboveAverage   Node_ROOT_Average;

param ConditionalProbability :=
   Node_ROOT 1.0
   Node_ROOT_BelowAverage 0.3333
   Node_ROOT_AboveAverage 0.3333
   Node_ROOT_Average 0.3334
;

set Scenarios :=
   Scenario_BelowAverage   Scenario_AboveAverage   Scenario_Average;

param ScenarioLeafNode :=
   Scenario_BelowAverage Node_ROOT_BelowAverage
   Scenario_AboveAverage Node_ROOT_AboveAverage
   Scenario_Average Node_ROOT_Average
;
